# 29874
param n := 20;
param s := 1;
set E :=  (0,10) (0,14) (1,18) (2,9) (2,16) (3,13) (3,17) (3,18) (4,13) (4,19) (5,11) (5,12) (5,15) (6,11) (6,16) (7,18) (8,16) (8,18) (9,14) (10,13) (11,19) (12,17) (13,18) (14,17);
